bestever    1632    in generation 0
[19, 2, 14, 8, 15, 20, 9, 16, 7, 1, 18, 12, 3, 5, 11, 4, 13, 10, 6, 17, 19, 2, 14, 8, 15, 20, 9, 16, 7, 1, 18, 12, 3, 5, 11, 4, 13, 10, 6, 17, 19, 2, 14, 8, 15, 20, 9, 16, 7, 1, 18, 12, 3, 5, 11, 4, 13, 10, 6, 17, 19, 2, 14, 8, 15, 20, 9, 16, 7, 1, 18, 12, 3, 5, 11, 4, 13, 10, 6, 17, 19, 2, 14, 8, 15, 20, 9, 16, 7, 1, 18, 12, 3, 5, 11, 4, 13, 10, 6, 17, 19, 2, 14, 8, 15, 20, 9, 16, 7, 1, 18, 12, 3, 5, 11, 4, 13, 10, 6, 17, 19, 2, 14, 8, 15, 20, 9, 16, 7, 1, 18, 12, 3, 5, 11, 4, 13, 10, 6, 17, 19, 2, 14, 8, 15, 20, 9, 16, 7, 1, 18, 12, 3, 5, 11, 4, 13, 10, 6, 17, 19, 2, 14, 8, 15, 20, 9, 16, 7, 1, 18, 12, 3, 5, 11, 4, 13, 10, 6, 17, 19, 2, 14, 8, 15, 20, 9, 16, 7, 1, 18, 12, 3, 5, 11, 4, 13, 10, 6, 17]
bestever    1631    in generation 2013
[19, 2, 14, 8, 15, 20, 13, 9, 16, 7, 1, 19, 18, 12, 3, 5, 19, 11, 10, 14, 2, 2, 14, 8, 19, 15, 20, 9, 16, 18, 4, 2, 19, 8, 7, 1, 2, 12, 3, 14, 2, 19, 8, 15, 20, 19, 6, 9, 5, 16, 19, 2, 14, 8, 15, 17, 8, 20, 14, 11, 4, 19, 14, 13, 2, 9, 2, 6, 7, 1, 18, 12, 3, 15, 10, 8, 20, 2, 9, 7, 16, 7, 1, 18, 12, 3, 5, 11, 5, 11, 16, 4, 14, 13, 4, 6, 10, 20, 8, 19, 15, 13, 9, 20, 20, 17, 7, 9, 14, 16, 20, 10, 15, 16, 1, 7, 18, 12, 3, 5, 11, 4, 13, 10, 6, 1, 18, 1, 12, 3, 5, 15, 8, 9, 16, 7, 18, 12, 3, 5, 11, 4, 17, 13, 10, 17, 6, 6, 15, 8, 1, 17, 20, 9, 16, 18, 12, 3, 5, 11, 17, 4, 13, 11, 15, 10, 7, 1, 18, 12, 3, 5, 6, 11, 4, 4, 17, 13, 10, 14, 13, 10, 6, 17, 6, 17, 9, 16, 1, 7, 18, 12, 3, 5, 11, 4, 13, 10, 6, 17]
bestever    1629    in generation 4201
[19, 2, 14, 8, 19, 15, 18, 20, 13, 16, 9, 7, 1, 19, 19, 12, 3, 5, 11, 2, 10, 14, 14, 8, 14, 19, 19, 15, 20, 9, 16, 2, 18, 4, 8, 2, 8, 8, 14, 7, 1, 2, 15, 12, 3, 15, 8, 19, 6, 2, 8, 20, 9, 5, 7, 20, 16, 2, 15, 8, 14, 20, 19, 9, 15, 9, 9, 7, 17, 15, 2, 8, 1, 18, 12, 3, 14, 9, 11, 2, 15, 19, 10, 16, 5, 1, 18, 12, 3, 4, 14, 11, 5, 10, 13, 20, 4, 7, 16, 13, 2, 20, 6, 15, 19, 15, 17, 11, 4, 17, 1, 13, 20, 17, 14, 6, 7, 14, 8, 20, 16, 7, 7, 1, 18, 12, 18, 3, 5, 9, 16, 11, 4, 16, 1, 13, 9, 18, 12, 3, 20, 1, 5, 16, 7, 12, 3, 5, 11, 11, 10, 4, 4, 10, 13, 10, 6, 6, 1, 6, 18, 12, 3, 5, 3, 11, 17, 13, 4, 16, 10, 13, 18, 6, 9, 17, 1, 10, 3, 12, 5, 11, 18, 4, 13, 7, 12, 5, 6, 17, 11, 4, 17, 13, 10, 10, 6, 17, 6, 17]
bestever    1624    in generation 4326
[19, 2, 14, 8, 19, 15, 18, 20, 13, 16, 9, 7, 1, 19, 19, 19, 12, 3, 5, 11, 2, 10, 14, 14, 8, 14, 19, 19, 15, 20, 9, 16, 2, 18, 4, 8, 2, 8, 8, 14, 7, 1, 2, 15, 12, 3, 15, 8, 19, 6, 2, 8, 20, 9, 5, 7, 20, 16, 2, 15, 8, 14, 20, 19, 9, 15, 9, 9, 7, 15, 7, 17, 2, 8, 1, 18, 12, 3, 14, 9, 11, 2, 15, 19, 10, 16, 5, 1, 18, 12, 3, 4, 14, 11, 5, 10, 13, 20, 4, 7, 16, 13, 2, 20, 15, 6, 15, 11, 4, 1, 13, 20, 14, 14, 8, 20, 16, 7, 7, 1, 18, 12, 18, 3, 5, 9, 16, 11, 4, 16, 1, 13, 9, 18, 12, 3, 20, 1, 5, 16, 7, 12, 3, 5, 11, 17, 17, 11, 6, 10, 4, 4, 10, 13, 10, 6, 6, 1, 18, 12, 3, 5, 3, 11, 13, 17, 17, 6, 4, 16, 10, 13, 18, 6, 9, 17, 1, 10, 3, 12, 5, 11, 18, 4, 13, 7, 12, 5, 6, 17, 11, 4, 17, 13, 10, 10, 6, 17, 6, 17]
bestever    1616    in generation 5917
[19, 2, 16, 14, 8, 19, 15, 16, 18, 2, 20, 9, 14, 1, 19, 7, 2, 19, 15, 12, 3, 5, 19, 14, 11, 14, 14, 19, 8, 18, 19, 6, 19, 15, 20, 14, 13, 4, 2, 2, 2, 8, 8, 9, 7, 1, 2, 15, 12, 3, 8, 17, 8, 8, 20, 9, 5, 7, 20, 15, 16, 2, 15, 8, 9, 19, 9, 20, 7, 15, 10, 7, 16, 2, 15, 8, 20, 1, 18, 12, 3, 8, 9, 11, 14, 16, 19, 5, 1, 18, 16, 12, 3, 4, 14, 11, 5, 15, 9, 20, 13, 4, 7, 9, 20, 13, 11, 14, 10, 6, 10, 17, 6, 4, 20, 13, 1, 9, 1, 14, 10, 2, 6, 16, 7, 7, 1, 18, 16, 12, 18, 12, 5, 3, 18, 17, 15, 11, 4, 18, 13, 9, 12, 3, 1, 5, 16, 7, 12, 3, 5, 11, 11, 18, 4, 10, 13, 10, 1, 20, 4, 17, 6, 6, 12, 3, 5, 3, 13, 11, 17, 10, 16, 6, 1, 3, 5, 4, 13, 10, 6, 17, 11, 17, 17, 18, 4, 13, 7, 12, 5, 10, 6, 17, 11, 4, 13, 10, 6, 17]
